\ Generated by MPModelProtoExporter
\   Name             : 
\   Format           : Free
\   Constraints      : 75
\   Variables        : 80
\     Binary         : 0
\     Integer        : 0
\     Continuous     : 80
Minimize
 Obj: +1 dGen_up_3_Bus6LV +1 dGen_up_4_Bus8TV +1 dGen_down_0_Bus1HV +1 dGen_down_1_Bus2HV +1 dGen_down_2_Bus3HV +10000 Area_slack +1 pftk_15 +1 pftk_16 +1 pftk_17 +10000 overload1_0 +10000 overload2_0 +10000 overload1_1 +10000 overload2_1 +10000 overload1_2 +10000 overload2_2 +10000 overload1_3 +10000 overload2_3 +10000 overload1_4 +10000 overload2_4 +10000 overload1_5 +10000 overload2_5 +10000 overload1_6 +10000 overload2_6 +10000 overload1_7 +10000 overload2_7 +10000 overload1_8 +10000 overload2_8 +10000 overload1_9 +10000 overload2_9 +10000 overload1_10 +10000 overload2_10 +10000 overload1_11 +10000 overload2_11 +10000 overload1_12 +10000 overload2_12 +10000 overload1_13 +10000 overload2_13 +10000 overload1_14 +10000 overload2_14 +10000 overload1_15 +10000 overload2_15 +10000 overload1_16 +10000 overload2_16 +10000 overload1_17 +10000 overload2_17 +10000 overload1_18 +10000 overload2_18 +10000 overload1_19 +10000 overload2_19 
Subject to
 Slack_angle_zero: +1 theta0  = 0
 Node_power_balance_0: +21.384 theta0 -16.9005 theta1 -4.4835 theta4 -1 dGen_down_0_Bus1HV  = 2.324
 Node_power_balance_1: -16.9005 theta0 +33.3743 theta1 -5.05127 theta2 -5.67151 theta3 -5.75109 theta4 -1 dGen_down_1_Bus2HV  = 0.183
 Node_power_balance_2: -5.05127 theta1 +10.8982 theta2 -5.84693 theta3 -1 dGen_down_2_Bus3HV  = -0.942
 Node_power_balance_3: -5.67151 theta1 -5.84693 theta2 +42.0108 theta3 -23.7473 theta4 -4.88951 theta6 -1.8555 theta8  = -0.478
 Node_power_balance_4: -4.4835 theta0 -5.75109 theta1 -23.7473 theta3 +38.2394 theta4 -4.25745 theta5  = -0.076
 Node_power_balance_5: -4.25745 theta4 +20.8706 theta5 -5.02765 theta10 -3.90915 theta11 -7.67636 theta12 -1 dGen_up_3_Bus6LV  = -0.112
 Node_power_balance_6: -4.88951 theta3 +19.6566 theta6 -5.67698 theta7 -9.09008 theta8  = 0
 Node_power_balance_7: -5.67698 theta6 +5.67698 theta7 -1 dGen_up_4_Bus8TV  = 0
 Node_power_balance_8: -1.8555 theta3 -9.09008 theta6 +26.4784 theta8 -11.8343 theta9 -3.6985 theta13  = -0.295
 Node_power_balance_9: -11.8343 theta8 +17.0408 theta9 -5.20644 theta10  = -0.09
 Node_power_balance_10: -5.02765 theta5 -5.20644 theta9 +10.2341 theta10  = -0.035
 Node_power_balance_11: -3.90915 theta5 +8.91215 theta11 -5.003 theta12  = -0.061
 Node_power_balance_12: -7.67636 theta5 -5.003 theta11 +15.5528 theta12 -2.8734 theta13  = -0.135
 Node_power_balance_13: -3.6985 theta8 -2.8734 theta12 +6.5719 theta13  = -0.149
 branch_power_flow_0: +21.5786 theta3 -21.5786 theta4 +1 pftk_0  = 0
 ft_rating_0: +1 pftk_0 -1 overload1_0  <= 1
 tf_rating_0: -1 pftk_0 -1 overload2_0  <= 1
 branch_power_flow_1: +4.09407 theta5 -4.09407 theta10 +1 pftk_1  = 0
 ft_rating_1: +1 pftk_1 -1 overload1_1  <= 0.5
 tf_rating_1: -1 pftk_1 -1 overload2_1  <= 0.5
 branch_power_flow_2: +3.17596 theta5 -3.17596 theta11 +1 pftk_2  = 0
 ft_rating_2: +1 pftk_2 -1 overload1_2  <= 0.2
 tf_rating_2: -1 pftk_2 -1 overload2_2  <= 0.2
 branch_power_flow_3: +6.10276 theta5 -6.10276 theta12 +1 pftk_3  = 0
 ft_rating_3: +1 pftk_3 -1 overload1_3  <= 0.5
 tf_rating_3: -1 pftk_3 -1 overload2_3  <= 0.5
 branch_power_flow_4: +10.3654 theta8 -10.3654 theta9 +1 pftk_4  = 0
 ft_rating_4: +1 pftk_4 -1 overload1_4  <= 0.2
 tf_rating_4: -1 pftk_4 -1 overload2_4  <= 0.2
 branch_power_flow_5: +3.02905 theta8 -3.02905 theta13 +1 pftk_5  = 0
 ft_rating_5: +1 pftk_5 -1 overload1_5  <= 0.3
 tf_rating_5: -1 pftk_5 -1 overload2_5  <= 0.3
 branch_power_flow_6: +4.40294 theta9 -4.40294 theta10 +1 pftk_6  = 0
 ft_rating_6: +1 pftk_6 -1 overload1_6  <= 0.2
 tf_rating_6: -1 pftk_6 -1 overload2_6  <= 0.2
 branch_power_flow_7: +2.25197 theta11 -2.25197 theta12 +1 pftk_7  = 0
 ft_rating_7: +1 pftk_7 -1 overload1_7  <= 0.2
 tf_rating_7: -1 pftk_7 -1 overload2_7  <= 0.2
 branch_power_flow_8: +2.31496 theta12 -2.31496 theta13 +1 pftk_8  = 0
 ft_rating_8: +1 pftk_8 -1 overload1_8  <= 0.2
 tf_rating_8: -1 pftk_8 -1 overload2_8  <= 0.2
 branch_power_flow_9: +15.2631 theta0 -15.2631 theta1 +1 pftk_9  = 0
 ft_rating_9: +1 pftk_9 -1 overload1_9  <= 2
 tf_rating_9: -1 pftk_9 -1 overload2_9  <= 2
 branch_power_flow_10: +4.23498 theta0 -4.23498 theta4 +1 pftk_10  = 0
 ft_rating_10: +1 pftk_10 -1 overload1_10  <= 1
 tf_rating_10: -1 pftk_10 -1 overload2_10  <= 1
 branch_power_flow_11: +4.78186 theta1 -4.78186 theta2 +1 pftk_11  = 0
 ft_rating_11: +1 pftk_11 -1 overload1_11  <= 1
 tf_rating_11: -1 pftk_11 -1 overload2_11  <= 1
 branch_power_flow_12: +5.11584 theta1 -5.11584 theta3 +1 pftk_12  = 0
 ft_rating_12: +1 pftk_12 -1 overload1_12  <= 1
 tf_rating_12: -1 pftk_12 -1 overload2_12  <= 1
 branch_power_flow_13: +5.19393 theta1 -5.19393 theta4 +1 pftk_13  = 0
 ft_rating_13: +1 pftk_13 -1 overload1_13  <= 0.8
 tf_rating_13: -1 pftk_13 -1 overload2_13  <= 0.8
 branch_power_flow_14: +5.06882 theta2 -5.06882 theta3 +1 pftk_14  = 0
 ft_rating_14: +1 pftk_14 -1 overload1_14  <= 0.5
 tf_rating_14: -1 pftk_14 -1 overload2_14  <= 0.5
 branch_power_flow_15: +4.78194 theta3 -4.78194 theta6 +1 pftk_15  = 0
 ft_rating_15: +1 pftk_15 -1 overload1_15  <= 0.5
 tf_rating_15: -1 pftk_15 -1 overload2_15  <= 0.5
 branch_power_flow_16: +1.79798 theta3 -1.79798 theta8 +1 pftk_16  = 0
 ft_rating_16: +1 pftk_16 -1 overload1_16  <= 0.5
 tf_rating_16: -1 pftk_16 -1 overload2_16  <= 0.5
 branch_power_flow_17: +3.96794 theta4 -3.96794 theta5 +1 pftk_17  = 0
 ft_rating_17: +1 pftk_17 -1 overload1_17  <= 0.8
 tf_rating_17: -1 pftk_17 -1 overload2_17  <= 0.8
 branch_power_flow_18: +5.67698 theta6 -5.67698 theta7 +1 pftk_18  = 0
 ft_rating_18: +1 pftk_18 -1 overload1_18  <= 0.5
 tf_rating_18: -1 pftk_18 -1 overload2_18  <= 0.5
 branch_power_flow_19: +9.09008 theta6 -9.09008 theta8 +1 pftk_19  = 0
 ft_rating_19: +1 pftk_19 -1 overload1_19  <= 0.5
 tf_rating_19: -1 pftk_19 -1 overload2_19  <= 0.5
Bounds
 -6.28 <= theta0 <= 6.28
 -6.28 <= theta1 <= 6.28
 -6.28 <= theta2 <= 6.28
 -6.28 <= theta3 <= 6.28
 -6.28 <= theta4 <= 6.28
 -6.28 <= theta5 <= 6.28
 -6.28 <= theta6 <= 6.28
 -6.28 <= theta7 <= 6.28
 -6.28 <= theta8 <= 6.28
 -6.28 <= theta9 <= 6.28
 -6.28 <= theta10 <= 6.28
 -6.28 <= theta11 <= 6.28
 -6.28 <= theta12 <= 6.28
 -6.28 <= theta13 <= 6.28
 0 <= dGen_up_3_Bus6LV <= 99.99
 0 <= dGen_up_4_Bus8TV <= 99.99
 -2.324 <= dGen_down_0_Bus1HV <= 0
 -0.4 <= dGen_down_1_Bus2HV <= 0
 -0 <= dGen_down_2_Bus3HV <= 0
 0 <= Area_slack <= 99999
 -9999 <= pftk_0 <= 9999
 -9999 <= pftk_1 <= 9999
 -9999 <= pftk_2 <= 9999
 -9999 <= pftk_3 <= 9999
 -9999 <= pftk_4 <= 9999
 -9999 <= pftk_5 <= 9999
 -9999 <= pftk_6 <= 9999
 -9999 <= pftk_7 <= 9999
 -9999 <= pftk_8 <= 9999
 -9999 <= pftk_9 <= 9999
 -9999 <= pftk_10 <= 9999
 -9999 <= pftk_11 <= 9999
 -9999 <= pftk_12 <= 9999
 -9999 <= pftk_13 <= 9999
 -9999 <= pftk_14 <= 9999
 -9999 <= pftk_15 <= 9999
 -9999 <= pftk_16 <= 9999
 -9999 <= pftk_17 <= 9999
 -9999 <= pftk_18 <= 9999
 -9999 <= pftk_19 <= 9999
 0 <= overload1_0 <= 9999
 0 <= overload2_0 <= 9999
 0 <= overload1_1 <= 9999
 0 <= overload2_1 <= 9999
 0 <= overload1_2 <= 9999
 0 <= overload2_2 <= 9999
 0 <= overload1_3 <= 9999
 0 <= overload2_3 <= 9999
 0 <= overload1_4 <= 9999
 0 <= overload2_4 <= 9999
 0 <= overload1_5 <= 9999
 0 <= overload2_5 <= 9999
 0 <= overload1_6 <= 9999
 0 <= overload2_6 <= 9999
 0 <= overload1_7 <= 9999
 0 <= overload2_7 <= 9999
 0 <= overload1_8 <= 9999
 0 <= overload2_8 <= 9999
 0 <= overload1_9 <= 9999
 0 <= overload2_9 <= 9999
 0 <= overload1_10 <= 9999
 0 <= overload2_10 <= 9999
 0 <= overload1_11 <= 9999
 0 <= overload2_11 <= 9999
 0 <= overload1_12 <= 9999
 0 <= overload2_12 <= 9999
 0 <= overload1_13 <= 9999
 0 <= overload2_13 <= 9999
 0 <= overload1_14 <= 9999
 0 <= overload2_14 <= 9999
 0 <= overload1_15 <= 9999
 0 <= overload2_15 <= 9999
 0 <= overload1_16 <= 9999
 0 <= overload2_16 <= 9999
 0 <= overload1_17 <= 9999
 0 <= overload2_17 <= 9999
 0 <= overload1_18 <= 9999
 0 <= overload2_18 <= 9999
 0 <= overload1_19 <= 9999
 0 <= overload2_19 <= 9999
End
